pMedian	pDispersion
1235.0	6.47
1233.0	5.95
1404.0	10.76
1241.0	6.69
1427.0	11.12
1441.0	11.43
1319.0	9.56
1443.0	11.53
1512.0	12.38
1300.0	9.27
1331.0	9.57
1341.0	9.93
1249.0	7.3
1242.0	7.11
1313.0	9.52
1255.0	7.64
1464.0	11.71
1259.0	8.02
1294.0	9.14
1251.0	7.45
1309.0	9.4
1285.0	8.91
1479.0	11.82
1273.0	8.39
1269.0	8.33
1401.0	10.23
1262.0	8.11
1502.0	12.35
1482.0	12.02
1282.0	8.87
